c 
c G(k,n,p) graph
c graph gen seed     : 345
c number of vertices : 25
c max number of edges: 500
c number of classes  : 2
c edge density       : 0.400000
c edge probability   : 0.800000
c data structure     : sparse
c
c           Graph Stats
c number of vertices  : 25
c nonisolated vertices: 25
c number of edges     : 123
c edge density        : 0.410000
c max degree          : 13
c avg degree          : 9.84
c min degree          : 8
p col 25 123
e 1 17
e 1 15
e 1 12
e 1 11
e 1 10
e 1 9
e 1 5
e 1 3
e 2 21
e 2 17
e 2 15
e 2 13
e 2 12
e 2 11
e 2 10
e 2 9
e 2 8
e 2 5
e 2 4
e 2 3
e 3 25
e 3 22
e 3 20
e 3 19
e 3 16
e 3 14
e 3 7
e 3 6
e 4 25
e 4 23
e 4 22
e 4 20
e 4 19
e 4 18
e 4 16
e 4 14
e 5 25
e 5 24
e 5 23
e 5 20
e 5 19
e 5 18
e 5 16
e 5 14
e 5 7
e 5 6
e 6 21
e 6 17
e 6 15
e 6 13
e 6 11
e 6 10
e 6 9
e 6 8
e 7 17
e 7 15
e 7 13
e 7 12
e 7 11
e 7 10
e 8 25
e 8 24
e 8 23
e 8 22
e 8 20
e 8 19
e 8 18
e 8 16
e 8 14
e 9 25
e 9 24
e 9 23
e 9 22
e 9 20
e 9 19
e 9 18
e 9 16
e 9 14
e 10 25
e 10 24
e 10 23
e 10 22
e 10 14
e 11 24
e 11 23
e 11 22
e 11 20
e 11 19
e 11 18
e 11 16
e 11 14
e 12 25
e 12 20
e 12 19
e 12 18
e 12 16
e 13 25
e 13 24
e 13 20
e 13 16
e 13 14
e 14 17
e 14 15
e 15 24
e 15 23
e 15 22
e 15 20
e 15 19
e 15 18
e 16 21
e 16 17
e 17 25
e 17 24
e 17 23
e 17 22
e 17 20
e 17 19
e 17 18
e 18 21
e 19 21
e 20 21
e 21 25
e 21 23
